(set-option :uf-ss-totality true) 
(set-option :finite-model-find true)     
; (set-option :pre-skolem-quant true)
(declare-sort a 0) 
(declare-sort b 0) 
(declare-fun c (b b) Bool) 
(declare-fun d (b b) Bool) 
(declare-fun ko () a) 
(declare-fun e () a) 
(declare-fun f () a) 
(declare-fun l () b) 
(declare-fun m () b) 
(assert (exists ((n b) (g b)) (= (d n g) (or (c n g)))))    
(assert (forall ((i a)) (or (= i f ) (= i ko)))) 
(assert (not (= f ko)))         
(assert (not (or (and (= e ko)(= l m)) (= e f)))) 
(check-sat)  
